solution status: optimal solution found
objective value:                                   10
$_265_y                                            16 	(obj:0)
$_265_z                                            14 	(obj:0)
$_196_y                                             8 	(obj:0)
$_196_z                                            18 	(obj:0)
$_101_y                                             8 	(obj:0)
$_101_z                                            14 	(obj:0)
$_19__4_y                                           7 	(obj:0)
$_19__4_z                                          23 	(obj:0)
$_23__4_y                                           7 	(obj:0)
$_23__4_z                                          21 	(obj:0)
$_18__4_y                                           2 	(obj:0)
$_18__4_z                                          14 	(obj:0)
$_224_y                                            12 	(obj:0)
$_224_z                                            18 	(obj:0)
$_22__4_y                                           6 	(obj:0)
$_22__4_z                                          15 	(obj:0)
$_155_y                                             8 	(obj:0)
$_155_z                                            15 	(obj:0)
$_100_y                                            16 	(obj:0)
$_100_z                                            11 	(obj:0)
$_21__4_y                                          11 	(obj:0)
$_21__4_z                                          10 	(obj:0)
$_24__4_y                                          12 	(obj:0)
$_24__4_z                                          15 	(obj:0)
$_20__4_y                                          10 	(obj:0)
$_20__4_z                                          15 	(obj:0)
$_183_y                                             8 	(obj:0)
$_183_z                                            16 	(obj:0)
$_277_y                                            16 	(obj:0)
$_277_z                                            10 	(obj:0)
$_25__4_y                                          17 	(obj:0)
$_25__4_z                                          12 	(obj:0)
$_237_y                                            12 	(obj:0)
$_237_z                                            14 	(obj:0)
x35                                                 2 	(obj:1)
x38                                                 2 	(obj:1)
x49                                                 2 	(obj:1)
x52                                                 2 	(obj:1)
x68                                                 2 	(obj:1)
